Minimize
obj1:+3 x(1) +3 x(2) -6 x(3) +16 x(4) +5 x(5) +5 x(6) -8 x(7) -17 x(8) -8 x(9) -11 x(10) -6 x(11) +14 x(12) -14 x(13) -14 x(14) +0 x(15) +4 x(16) -14 x(17) +6 x(18) +14 x(19) +12 x(20)
Subject To
c1:+10 x(1) +15 x(2) +20 x(3) +16 x(4) +1 x(5) +10 x(6) +14 x(7) +3 x(8) +11 x(9) +7 x(10) +9 x(11) +13 x(12) +18 x(13) +18 x(14) +11 x(15) +14 x(16) +3 x(17) +7 x(18) +17 x(19) +20 x(20)  <=  69
c2:+7 x(1) +19 x(2) +7 x(3) +11 x(4) +4 x(5) +2 x(6) +3 x(7) +19 x(8) +9 x(9) +15 x(10) +10 x(11) +2 x(12) +2 x(13) +7 x(14) +3 x(15) +15 x(16) +6 x(17) +9 x(18) +7 x(19) +5 x(20)  <=  85
c3:+7 x(1) +5 x(2) +3 x(3) +12 x(4) +19 x(5) +14 x(6) +5 x(7) +6 x(8) +11 x(9) +9 x(10) +15 x(11) +14 x(12) +13 x(13) +3 x(14) +11 x(15) +10 x(16) +4 x(17) +9 x(18) +8 x(19) +11 x(20)  <=  80
c4:+10 x(1) +18 x(2) +8 x(3) +9 x(4) +19 x(5) +15 x(6) +6 x(7) +19 x(8) +18 x(9) +2 x(10) +9 x(11) +10 x(12) +7 x(13) +16 x(14) +18 x(15) +8 x(16) +7 x(17) +20 x(18) +16 x(19) +5 x(20)  <=  89
c5:+5 x(1) +5 x(2) +12 x(3) +15 x(4) +10 x(5) +19 x(6) +4 x(7) +13 x(8) +3 x(9) +8 x(10) +1 x(11) +7 x(12) +13 x(13) +7 x(14) +4 x(15) +6 x(16) +3 x(17) +2 x(18) +2 x(19) +12 x(20)  <=  80
c6:+1 x(1) +17 x(2) +13 x(3) +2 x(4) +17 x(5) +14 x(6) +7 x(7) +18 x(8) +9 x(9) +10 x(10) +2 x(11) +11 x(12) +18 x(13) +6 x(14) +4 x(15) +2 x(16) +17 x(17) +8 x(18) +20 x(19) +20 x(20)  <=  69
c7:+14 x(1) +18 x(2) +11 x(3) +12 x(4) +19 x(5) +14 x(6) +17 x(7) +8 x(8) +2 x(9) +17 x(10) +12 x(11) +15 x(12) +8 x(13) +5 x(14) +2 x(15) +9 x(16) +20 x(17) +16 x(18) +1 x(19) +3 x(20)  <=  93
c8:+4 x(1) +11 x(2) +7 x(3) +18 x(4) +14 x(5) +18 x(6) +6 x(7) +5 x(8) +8 x(9) +7 x(10) +9 x(11) +17 x(12) +16 x(13) +2 x(14) +14 x(15) +4 x(16) +5 x(17) +12 x(18) +6 x(19) +20 x(20)  <=  61
c9:+17 x(1) +10 x(2) +4 x(3) +9 x(4) +8 x(5) +10 x(6) +16 x(7) +4 x(8) +15 x(9) +17 x(10) +19 x(11) +7 x(12) +4 x(13) +12 x(14) +1 x(15) +8 x(16) +15 x(17) +7 x(18) +1 x(19) +3 x(20)  <=  90
c10:+9 x(1) +18 x(2) +4 x(3) +14 x(4) +9 x(5) +10 x(6) +12 x(7) +11 x(8) +2 x(9) +12 x(10) +2 x(11) +7 x(12) +11 x(13) +9 x(14) +6 x(15) +19 x(16) +1 x(17) +19 x(18) +9 x(19) +4 x(20)  <=  100
c11:+7 x(1) +2 x(2) +3 x(3) +7 x(4) +9 x(5) +17 x(6) +12 x(7) +6 x(8) +14 x(9) +2 x(10) +8 x(11) +7 x(12) +13 x(13) +16 x(14) +20 x(15) +11 x(16) +13 x(17) +2 x(18) +16 x(19) +13 x(20)  <=  64
c12:+15 x(1) +11 x(2) +15 x(3) +13 x(4) +14 x(5) +17 x(6) +15 x(7) +7 x(8) +6 x(9) +6 x(10) +11 x(11) +14 x(12) +15 x(13) +10 x(14) +16 x(15) +19 x(16) +14 x(17) +7 x(18) +19 x(19) +3 x(20)  <=  86
c13:+15 x(1) +13 x(2) +10 x(3) +6 x(4) +10 x(5) +4 x(6) +16 x(7) +1 x(8) +12 x(9) +12 x(10) +3 x(11) +18 x(12) +7 x(13) +8 x(14) +5 x(15) +2 x(16) +1 x(17) +18 x(18) +11 x(19) +2 x(20)  <=  83
c14:+4 x(1) +15 x(2) +3 x(3) +16 x(4) +20 x(5) +1 x(6) +19 x(7) +12 x(8) +4 x(9) +10 x(10) +19 x(11) +16 x(12) +6 x(13) +2 x(14) +14 x(15) +20 x(16) +1 x(17) +14 x(18) +17 x(19) +14 x(20)  <=  71
c15:+3 x(1) +5 x(2) +15 x(3) +16 x(4) +8 x(5) +2 x(6) +3 x(7) +20 x(8) +9 x(9) +4 x(10) +13 x(11) +18 x(12) +19 x(13) +5 x(14) +3 x(15) +2 x(16) +3 x(17) +14 x(18) +12 x(19) +1 x(20)  <=  75
c16:+4 x(1) +1 x(2) +4 x(3) +20 x(4) +7 x(5) +3 x(6) +16 x(7) +17 x(8) +1 x(9) +5 x(10) +19 x(11) +18 x(12) +13 x(13) +11 x(14) +13 x(15) +7 x(16) +18 x(17) +10 x(18) +16 x(19) +20 x(20)  <=  98
c17:+13 x(1) +3 x(2) +17 x(3) +9 x(4) +18 x(5) +4 x(6) +4 x(7) +1 x(8) +5 x(9) +16 x(10) +13 x(11) +4 x(12) +2 x(13) +9 x(14) +18 x(15) +16 x(16) +6 x(17) +3 x(18) +1 x(19) +11 x(20)  <=  98
c18:+17 x(1) +16 x(2) +11 x(3) +10 x(4) +11 x(5) +13 x(6) +1 x(7) +13 x(8) +6 x(9) +13 x(10) +1 x(11) +18 x(12) +13 x(13) +19 x(14) +18 x(15) +13 x(16) +11 x(17) +20 x(18) +10 x(19) +8 x(20)  <=  87
c19:+11 x(1) +20 x(2) +11 x(3) +12 x(4) +15 x(5) +1 x(6) +3 x(7) +8 x(8) +11 x(9) +3 x(10) +7 x(11) +20 x(12) +4 x(13) +2 x(14) +7 x(15) +10 x(16) +11 x(17) +18 x(18) +6 x(19) +15 x(20)  <=  69
c20:+4 x(1) +8 x(2) +5 x(3) +17 x(4) +3 x(5) +10 x(6) +3 x(7) +3 x(8) +5 x(9) +15 x(10) +3 x(11) +16 x(12) +16 x(13) +9 x(14) +10 x(15) +6 x(16) +12 x(17) +9 x(18) +7 x(19) +19 x(20)  <=  52
obj2:-10 x(1) -8 x(2) -13 x(3) -2 x(4) -7 x(5) -9 x(6) +18 x(7) -4 x(8) -5 x(9) +4 x(10) -18 x(11) -12 x(12) +9 x(13) +3 x(14) -12 x(15) +14 x(16) -3 x(17) +2 x(18) +1 x(19) -13 x(20)  <=  0
Binaries
x(1) x(2) x(3) x(4) x(5) x(6) x(7) x(8) x(9) x(10) x(11) x(12) x(13) x(14) x(15) x(16) x(17) x(18) x(19) x(20)
End
